NAME : gr229.tour
COMMENT : Optimum tour for gr229.tsp (Length 134602)
TYPE : TOUR
DIMENSION : 229
TOUR_SECTION
41
40
39
32
31
29
28
1
2
3
4
5
6
7
8
9
10
11
19
51
52
53
55
54
58
59
60
61
62
64
65
66
63
67
68
69
71
70
72
73
78
77
76
75
74
91
90
79
80
88
89
86
85
25
84
87
81
82
83
57
56
24
23
22
21
20
18
17
16
12
13
14
15
26
27
30
33
34
38
166
125
124
110
109
108
104
105
107
106
99
98
97
96
95
37
35
36
92
93
94
100
101
102
103
112
115
118
119
121
122
123
120
116
113
117
114
111
126
127
128
129
130
131
132
138
137
136
135
134
133
171
170
169
167
168
177
179
181
180
178
182
183
185
186
50
184
46
48
47
49
188
189
190
191
193
192
194
195
196
187
197
198
199
176
175
174
172
163
173
165
164
162
161
160
159
156
157
150
155
151
154
153
152
141
140
139
142
143
144
145
146
147
148
149
205
212
204
158
201
200
223
222
221
202
203
211
210
209
206
207
208
213
214
215
216
220
219
217
218
227
228
229
226
225
224
43
44
45
42
-1
EOF
